(set-logic QF_S)
(set-option :strings-exp true)
(set-option :produce-models true)
(declare-fun sigmaStar_0 () String)
(declare-fun sigmaStar_1 () String)
(declare-fun x_3 () String)
(declare-fun literal_2 () String)
(declare-fun literal_4 () String)
(declare-fun x_6 () String)
(declare-fun literal_5 () String)
(declare-fun x_7 () String)
(declare-fun x_8 () String)
(assert (= literal_2 "\x61\x6c\x6c"))
(assert (or (= x_3 literal_2) (= x_3 sigmaStar_0)))
(assert (= literal_4 "\x3c\x62\x72\x3e\x3c\x62\x72\x3e\x5c\x6e\x3c\x2f\x63\x65\x6e\x74\x65\x72\x3e\x5c\x6e"))
(assert (= x_6 (str.++ x_3 literal_4)))
(assert (= literal_5 "\x3c\x63\x65\x6e\x74\x65\x72\x3e\x3c\x62\x72\x3e\x5c\x6e"))
(assert (= x_7 (str.++ literal_5 sigmaStar_1)))
(assert (= x_8 (str.++ x_7 x_6)))
(assert (str.in.re x_8 (re.++ (re.* re.allchar) (re.++ (str.to.re "\x5c\x3c\x53\x43\x52\x49\x50\x54") (re.* re.allchar)))))
(check-sat)
(get-model)
